Route #1: 7 24 15 18 10 9 43 11 16 8 37 17 27 39 32 13 40 25 35 3 2
Route #2: 33 26 28 42 4 23 12 31 14
Route #3: 19 6 34 20 29 38
Route #4: 30 36 41
Route #5: 22 21
Route #6: 5 1
cost 959.7015093987194
